w = 17;

n = 12;

r2 = array1d(1..2, [3, 3]);

r3 = array1d(1..2, [3, 4]);

r4 = array1d(1..2, [3, 5]);

r5 = array1d(1..2, [3, 6]);

r6 = array1d(1..2, [3, 7]);

r7 = array1d(1..2, [3, 8]);

r8 = array1d(1..2, [3, 9]);

r9 = array1d(1..2, [4, 3]);

r10 = array1d(1..2, [4, 8]);

r11 = array1d(1..2, [4, 14]);

r12 = array1d(1..2, [7, 3]);

r13 = array1d(1..2, [7, 6]);

